p cnf 64 784
1 9 17 25 33 41 49 57 0
2 10 18 26 34 42 50 58 0
3 11 19 27 35 43 51 59 0
4 12 20 28 36 44 52 60 0
5 13 21 29 37 45 53 61 0
6 14 22 30 38 46 54 62 0
7 15 23 31 39 47 55 63 0
8 16 24 32 40 48 56 64 0
-1 -9 0
-1 -17 0
-1 -25 0
-1 -33 0
-1 -41 0
-1 -49 0
-1 -57 0
-9 -17 0
-9 -25 0
-9 -33 0
-9 -41 0
-9 -49 0
-9 -57 0
-17 -25 0
-17 -33 0
-17 -41 0
-17 -49 0
-17 -57 0
-25 -33 0
-25 -41 0
-25 -49 0
-25 -57 0
-33 -41 0
-33 -49 0
-33 -57 0
-41 -49 0
-41 -57 0
-49 -57 0
-2 -10 0
-2 -18 0
-2 -26 0
-2 -34 0
-2 -42 0
-2 -50 0
-2 -58 0
-10 -18 0
-10 -26 0
-10 -34 0
-10 -42 0
-10 -50 0
-10 -58 0
-18 -26 0
-18 -34 0
-18 -42 0
-18 -50 0
-18 -58 0
-26 -34 0
-26 -42 0
-26 -50 0
-26 -58 0
-34 -42 0
-34 -50 0
-34 -58 0
-42 -50 0
-42 -58 0
-50 -58 0
-3 -11 0
-3 -19 0
-3 -27 0
-3 -35 0
-3 -43 0
-3 -51 0
-3 -59 0
-11 -19 0
-11 -27 0
-11 -35 0
-11 -43 0
-11 -51 0
-11 -59 0
-19 -27 0
-19 -35 0
-19 -43 0
-19 -51 0
-19 -59 0
-27 -35 0
-27 -43 0
-27 -51 0
-27 -59 0
-35 -43 0
-35 -51 0
-35 -59 0
-43 -51 0
-43 -59 0
-51 -59 0
-4 -12 0
-4 -20 0
-4 -28 0
-4 -36 0
-4 -44 0
-4 -52 0
-4 -60 0
-12 -20 0
-12 -28 0
-12 -36 0
-12 -44 0
-12 -52 0
-12 -60 0
-20 -28 0
-20 -36 0
-20 -44 0
-20 -52 0
-20 -60 0
-28 -36 0
-28 -44 0
-28 -52 0
-28 -60 0
-36 -44 0
-36 -52 0
-36 -60 0
-44 -52 0
-44 -60 0
-52 -60 0
-5 -13 0
-5 -21 0
-5 -29 0
-5 -37 0
-5 -45 0
-5 -53 0
-5 -61 0
-13 -21 0
-13 -29 0
-13 -37 0
-13 -45 0
-13 -53 0
-13 -61 0
-21 -29 0
-21 -37 0
-21 -45 0
-21 -53 0
-21 -61 0
-29 -37 0
-29 -45 0
-29 -53 0
-29 -61 0
-37 -45 0
-37 -53 0
-37 -61 0
-45 -53 0
-45 -61 0
-53 -61 0
-6 -14 0
-6 -22 0
-6 -30 0
-6 -38 0
-6 -46 0
-6 -54 0
-6 -62 0
-14 -22 0
-14 -30 0
-14 -38 0
-14 -46 0
-14 -54 0
-14 -62 0
-22 -30 0
-22 -38 0
-22 -46 0
-22 -54 0
-22 -62 0
-30 -38 0
-30 -46 0
-30 -54 0
-30 -62 0
-38 -46 0
-38 -54 0
-38 -62 0
-46 -54 0
-46 -62 0
-54 -62 0
-7 -15 0
-7 -23 0
-7 -31 0
-7 -39 0
-7 -47 0
-7 -55 0
-7 -63 0
-15 -23 0
-15 -31 0
-15 -39 0
-15 -47 0
-15 -55 0
-15 -63 0
-23 -31 0
-23 -39 0
-23 -47 0
-23 -55 0
-23 -63 0
-31 -39 0
-31 -47 0
-31 -55 0
-31 -63 0
-39 -47 0
-39 -55 0
-39 -63 0
-47 -55 0
-47 -63 0
-55 -63 0
-8 -16 0
-8 -24 0
-8 -32 0
-8 -40 0
-8 -48 0
-8 -56 0
-8 -64 0
-16 -24 0
-16 -32 0
-16 -40 0
-16 -48 0
-16 -56 0
-16 -64 0
-24 -32 0
-24 -40 0
-24 -48 0
-24 -56 0
-24 -64 0
-32 -40 0
-32 -48 0
-32 -56 0
-32 -64 0
-40 -48 0
-40 -56 0
-40 -64 0
-48 -56 0
-48 -64 0
-56 -64 0
1 2 3 4 5 6 7 8 0
9 10 11 12 13 14 15 16 0
17 18 19 20 21 22 23 24 0
25 26 27 28 29 30 31 32 0
33 34 35 36 37 38 39 40 0
41 42 43 44 45 46 47 48 0
49 50 51 52 53 54 55 56 0
57 58 59 60 61 62 63 64 0
-1 -2 0
-1 -3 0
-1 -4 0
-1 -5 0
-1 -6 0
-1 -7 0
-1 -8 0
-2 -3 0
-2 -4 0
-2 -5 0
-2 -6 0
-2 -7 0
-2 -8 0
-3 -4 0
-3 -5 0
-3 -6 0
-3 -7 0
-3 -8 0
-4 -5 0
-4 -6 0
-4 -7 0
-4 -8 0
-5 -6 0
-5 -7 0
-5 -8 0
-6 -7 0
-6 -8 0
-7 -8 0
-9 -10 0
-9 -11 0
-9 -12 0
-9 -13 0
-9 -14 0
-9 -15 0
-9 -16 0
-10 -11 0
-10 -12 0
-10 -13 0
-10 -14 0
-10 -15 0
-10 -16 0
-11 -12 0
-11 -13 0
-11 -14 0
-11 -15 0
-11 -16 0
-12 -13 0
-12 -14 0
-12 -15 0
-12 -16 0
-13 -14 0
-13 -15 0
-13 -16 0
-14 -15 0
-14 -16 0
-15 -16 0
-17 -18 0
-17 -19 0
-17 -20 0
-17 -21 0
-17 -22 0
-17 -23 0
-17 -24 0
-18 -19 0
-18 -20 0
-18 -21 0
-18 -22 0
-18 -23 0
-18 -24 0
-19 -20 0
-19 -21 0
-19 -22 0
-19 -23 0
-19 -24 0
-20 -21 0
-20 -22 0
-20 -23 0
-20 -24 0
-21 -22 0
-21 -23 0
-21 -24 0
-22 -23 0
-22 -24 0
-23 -24 0
-25 -26 0
-25 -27 0
-25 -28 0
-25 -29 0
-25 -30 0
-25 -31 0
-25 -32 0
-26 -27 0
-26 -28 0
-26 -29 0
-26 -30 0
-26 -31 0
-26 -32 0
-27 -28 0
-27 -29 0
-27 -30 0
-27 -31 0
-27 -32 0
-28 -29 0
-28 -30 0
-28 -31 0
-28 -32 0
-29 -30 0
-29 -31 0
-29 -32 0
-30 -31 0
-30 -32 0
-31 -32 0
-33 -34 0
-33 -35 0
-33 -36 0
-33 -37 0
-33 -38 0
-33 -39 0
-33 -40 0
-34 -35 0
-34 -36 0
-34 -37 0
-34 -38 0
-34 -39 0
-34 -40 0
-35 -36 0
-35 -37 0
-35 -38 0
-35 -39 0
-35 -40 0
-36 -37 0
-36 -38 0
-36 -39 0
-36 -40 0
-37 -38 0
-37 -39 0
-37 -40 0
-38 -39 0
-38 -40 0
-39 -40 0
-41 -42 0
-41 -43 0
-41 -44 0
-41 -45 0
-41 -46 0
-41 -47 0
-41 -48 0
-42 -43 0
-42 -44 0
-42 -45 0
-42 -46 0
-42 -47 0
-42 -48 0
-43 -44 0
-43 -45 0
-43 -46 0
-43 -47 0
-43 -48 0
-44 -45 0
-44 -46 0
-44 -47 0
-44 -48 0
-45 -46 0
-45 -47 0
-45 -48 0
-46 -47 0
-46 -48 0
-47 -48 0
-49 -50 0
-49 -51 0
-49 -52 0
-49 -53 0
-49 -54 0
-49 -55 0
-49 -56 0
-50 -51 0
-50 -52 0
-50 -53 0
-50 -54 0
-50 -55 0
-50 -56 0
-51 -52 0
-51 -53 0
-51 -54 0
-51 -55 0
-51 -56 0
-52 -53 0
-52 -54 0
-52 -55 0
-52 -56 0
-53 -54 0
-53 -55 0
-53 -56 0
-54 -55 0
-54 -56 0
-55 -56 0
-57 -58 0
-57 -59 0
-57 -60 0
-57 -61 0
-57 -62 0
-57 -63 0
-57 -64 0
-58 -59 0
-58 -60 0
-58 -61 0
-58 -62 0
-58 -63 0
-58 -64 0
-59 -60 0
-59 -61 0
-59 -62 0
-59 -63 0
-59 -64 0
-60 -61 0
-60 -62 0
-60 -63 0
-60 -64 0
-61 -62 0
-61 -63 0
-61 -64 0
-62 -63 0
-62 -64 0
-63 -64 0
-1 -2 0
-1 -10 0
-1 -18 0
-1 -42 0
-1 -58 0
-9 -2 0
-9 -10 0
-9 -18 0
-9 -34 0
-9 -58 0
-17 -2 0
-17 -10 0
-17 -18 0
-17 -34 0
-17 -50 0
-25 -26 0
-25 -34 0
-25 -42 0
-25 -50 0
-25 -58 0
-33 -10 0
-33 -18 0
-33 -26 0
-33 -34 0
-33 -42 0
-41 -2 0
-41 -26 0
-41 -34 0
-41 -42 0
-41 -50 0
-49 -18 0
-49 -26 0
-49 -42 0
-49 -50 0
-49 -58 0
-57 -2 0
-57 -10 0
-57 -26 0
-57 -50 0
-57 -58 0
-2 -3 0
-2 -11 0
-2 -19 0
-2 -43 0
-2 -59 0
-10 -3 0
-10 -11 0
-10 -19 0
-10 -35 0
-10 -59 0
-18 -3 0
-18 -11 0
-18 -19 0
-18 -35 0
-18 -51 0
-26 -27 0
-26 -35 0
-26 -43 0
-26 -51 0
-26 -59 0
-34 -11 0
-34 -19 0
-34 -27 0
-34 -35 0
-34 -43 0
-42 -3 0
-42 -27 0
-42 -35 0
-42 -43 0
-42 -51 0
-50 -19 0
-50 -27 0
-50 -43 0
-50 -51 0
-50 -59 0
-58 -3 0
-58 -11 0
-58 -27 0
-58 -51 0
-58 -59 0
-3 -4 0
-3 -12 0
-3 -20 0
-3 -44 0
-3 -60 0
-11 -4 0
-11 -12 0
-11 -20 0
-11 -36 0
-11 -60 0
-19 -4 0
-19 -12 0
-19 -20 0
-19 -36 0
-19 -52 0
-27 -28 0
-27 -36 0
-27 -44 0
-27 -52 0
-27 -60 0
-35 -12 0
-35 -20 0
-35 -28 0
-35 -36 0
-35 -44 0
-43 -4 0
-43 -28 0
-43 -36 0
-43 -44 0
-43 -52 0
-51 -20 0
-51 -28 0
-51 -44 0
-51 -52 0
-51 -60 0
-59 -4 0
-59 -12 0
-59 -28 0
-59 -52 0
-59 -60 0
-4 -5 0
-4 -13 0
-4 -21 0
-4 -45 0
-4 -61 0
-12 -5 0
-12 -13 0
-12 -21 0
-12 -37 0
-12 -61 0
-20 -5 0
-20 -13 0
-20 -21 0
-20 -37 0
-20 -53 0
-28 -29 0
-28 -37 0
-28 -45 0
-28 -53 0
-28 -61 0
-36 -13 0
-36 -21 0
-36 -29 0
-36 -37 0
-36 -45 0
-44 -5 0
-44 -29 0
-44 -37 0
-44 -45 0
-44 -53 0
-52 -21 0
-52 -29 0
-52 -45 0
-52 -53 0
-52 -61 0
-60 -5 0
-60 -13 0
-60 -29 0
-60 -53 0
-60 -61 0
-5 -6 0
-5 -14 0
-5 -22 0
-5 -46 0
-5 -62 0
-13 -6 0
-13 -14 0
-13 -22 0
-13 -38 0
-13 -62 0
-21 -6 0
-21 -14 0
-21 -22 0
-21 -38 0
-21 -54 0
-29 -30 0
-29 -38 0
-29 -46 0
-29 -54 0
-29 -62 0
-37 -14 0
-37 -22 0
-37 -30 0
-37 -38 0
-37 -46 0
-45 -6 0
-45 -30 0
-45 -38 0
-45 -46 0
-45 -54 0
-53 -22 0
-53 -30 0
-53 -46 0
-53 -54 0
-53 -62 0
-61 -6 0
-61 -14 0
-61 -30 0
-61 -54 0
-61 -62 0
-6 -7 0
-6 -15 0
-6 -23 0
-6 -47 0
-6 -63 0
-14 -7 0
-14 -15 0
-14 -23 0
-14 -39 0
-14 -63 0
-22 -7 0
-22 -15 0
-22 -23 0
-22 -39 0
-22 -55 0
-30 -31 0
-30 -39 0
-30 -47 0
-30 -55 0
-30 -63 0
-38 -15 0
-38 -23 0
-38 -31 0
-38 -39 0
-38 -47 0
-46 -7 0
-46 -31 0
-46 -39 0
-46 -47 0
-46 -55 0
-54 -23 0
-54 -31 0
-54 -47 0
-54 -55 0
-54 -63 0
-62 -7 0
-62 -15 0
-62 -31 0
-62 -55 0
-62 -63 0
-7 -8 0
-7 -16 0
-7 -24 0
-7 -48 0
-7 -64 0
-15 -8 0
-15 -16 0
-15 -24 0
-15 -40 0
-15 -64 0
-23 -8 0
-23 -16 0
-23 -24 0
-23 -40 0
-23 -56 0
-31 -32 0
-31 -40 0
-31 -48 0
-31 -56 0
-31 -64 0
-39 -16 0
-39 -24 0
-39 -32 0
-39 -40 0
-39 -48 0
-47 -8 0
-47 -32 0
-47 -40 0
-47 -48 0
-47 -56 0
-55 -24 0
-55 -32 0
-55 -48 0
-55 -56 0
-55 -64 0
-63 -8 0
-63 -16 0
-63 -32 0
-63 -56 0
-63 -64 0
-8 -1 0
-8 -9 0
-8 -17 0
-8 -41 0
-8 -57 0
-16 -1 0
-16 -9 0
-16 -17 0
-16 -33 0
-16 -57 0
-24 -1 0
-24 -9 0
-24 -17 0
-24 -33 0
-24 -49 0
-32 -25 0
-32 -33 0
-32 -41 0
-32 -49 0
-32 -57 0
-40 -9 0
-40 -17 0
-40 -25 0
-40 -33 0
-40 -41 0
-48 -1 0
-48 -25 0
-48 -33 0
-48 -41 0
-48 -49 0
-56 -17 0
-56 -25 0
-56 -41 0
-56 -49 0
-56 -57 0
-64 -1 0
-64 -9 0
-64 -25 0
-64 -49 0
-64 -57 0
SAT
Hamiltonian Cycle: 1 -> 4 -> 2 -> 6 -> 3 -> 8 -> 5 -> 7 -> 1
